(set-logic QF_S)
(declare-fun var0 () String)
(assert (RegexIn var0 (RegexConcat (RegexPlus (RegexStar (Str2Reg "00"))) (RegexConcat (RegexUnion (RegexUnion (Str2Reg "1") (Str2Reg "22")) (RegexUnion (Str2Reg "33") (Str2Reg "4"))) (RegexConcat (RegexUnion (RegexPlus (Str2Reg "5")) (RegexPlus (Str2Reg "666"))) (RegexConcat (RegexPlus (RegexPlus (Str2Reg "777"))) (RegexConcat (RegexUnion (RegexStar (Str2Reg "888")) (RegexStar (Str2Reg "99"))) (RegexConcat (RegexUnion (RegexStar (Str2Reg "aaa")) (RegexStar (Str2Reg "bbb"))) (RegexConcat (RegexStar (RegexPlus (Str2Reg "c"))) (RegexConcat (RegexUnion (RegexUnion (Str2Reg "dd") (Str2Reg "eee")) (RegexUnion (Str2Reg "ff") (Str2Reg "g"))) (RegexConcat (RegexUnion (RegexPlus (Str2Reg "hh")) (RegexPlus (Str2Reg "i"))) (RegexUnion (RegexUnion (Str2Reg "j") (Str2Reg "kk")) (RegexUnion (Str2Reg "lll") (Str2Reg "m"))))))))))))))
(assert (RegexIn var0 (RegexConcat (RegexUnion (RegexUnion (Str2Reg "000") (Str2Reg "11")) (RegexUnion (Str2Reg "22") (Str2Reg "3"))) (RegexConcat (RegexUnion (RegexUnion (Str2Reg "44") (Str2Reg "555")) (RegexUnion (Str2Reg "6") (Str2Reg "77"))) (RegexConcat (RegexPlus (RegexStar (Str2Reg "88"))) (RegexConcat (RegexUnion (RegexPlus (Str2Reg "999")) (RegexPlus (Str2Reg "aaa"))) (RegexConcat (RegexStar (RegexPlus (Str2Reg "b"))) (RegexConcat (RegexUnion (RegexStar (Str2Reg "c")) (RegexStar (Str2Reg "dd"))) (RegexConcat (RegexPlus (RegexPlus (Str2Reg "eee"))) (RegexConcat (RegexStar (RegexStar (Str2Reg "ff"))) (RegexConcat (RegexPlus (RegexStar (Str2Reg "gg"))) (RegexStar (RegexStar (Str2Reg "hh"))))))))))))))
(assert (RegexIn var0 (RegexConcat (RegexUnion (RegexUnion (Str2Reg "00") (Str2Reg "1")) (RegexUnion (Str2Reg "2") (Str2Reg "33"))) (RegexConcat (RegexStar (RegexPlus (Str2Reg "444"))) (RegexConcat (RegexStar (RegexStar (Str2Reg "555"))) (RegexConcat (RegexUnion (RegexUnion (Str2Reg "666") (Str2Reg "777")) (RegexUnion (Str2Reg "8") (Str2Reg "99"))) (RegexConcat (RegexPlus (RegexStar (Str2Reg "aa"))) (RegexConcat (RegexUnion (RegexStar (Str2Reg "bb")) (RegexStar (Str2Reg "cc"))) (RegexConcat (RegexUnion (RegexStar (Str2Reg "ddd")) (RegexStar (Str2Reg "e"))) (RegexConcat (RegexStar (RegexUnion (Str2Reg "f") (Str2Reg "gg"))) (RegexConcat (RegexPlus (RegexStar (Str2Reg "hh"))) (RegexStar (RegexStar (Str2Reg "ii"))))))))))))))
(assert (RegexIn var0 (RegexConcat (RegexStar (RegexPlus (Str2Reg "00"))) (RegexConcat (RegexUnion (RegexUnion (Str2Reg "111") (Str2Reg "2")) (RegexUnion (Str2Reg "333") (Str2Reg "4"))) (RegexConcat (RegexStar (RegexUnion (Str2Reg "55") (Str2Reg "6"))) (RegexConcat (RegexStar (RegexUnion (Str2Reg "7") (Str2Reg "88"))) (RegexConcat (RegexUnion (RegexUnion (Str2Reg "99") (Str2Reg "aaa")) (RegexUnion (Str2Reg "b") (Str2Reg "c"))) (RegexConcat (RegexStar (RegexPlus (Str2Reg "d"))) (RegexConcat (RegexStar (RegexUnion (Str2Reg "ee") (Str2Reg "f"))) (RegexConcat (RegexPlus (RegexUnion (Str2Reg "ggg") (Str2Reg "h"))) (RegexConcat (RegexUnion (RegexPlus (Str2Reg "iii")) (RegexPlus (Str2Reg "jj"))) (RegexUnion (RegexStar (Str2Reg "k")) (RegexStar (Str2Reg "l"))))))))))))))
(check-sat)